Route #1: 26 58 38 10 31 39
Route #2: 11 59 14 19 54
Route #3: 13 57 15 37 20 60 36 5 29
Route #4: 45 27 52 8 35 53 7
Route #5: 46 34 4 30 2
Route #6: 48 47 21 61 28 62
Route #7: 22 64 42 41 43 1 33
Route #8: 16 63 23 56 49 24 3
Route #9: 9 25 55 18 50 32 44
Route #10: 12 40 17 51 6
Cost 825